
-4.7
-4.7
-4.5
-4.3
-4.2
-4.1
-4.0
-4.0
-3.9
-3.7
-3.5
-3.0
-2.6
-2.6
-2.0
-1.7
-1.6
-1.1
-0.9
-0.9
-0.9
-0.9
-0.9
-0.9
-0.9
-0.9
-0.9
-0.9
-0.9
-0.9
-0.9
-0.9
-0.9
-0.9
-0.9
-4.8
-4.5
-4.4
-4.2
-4.2
-4.2
-4.1
-4.1
-4.0
-3.9
-3.6
-3.3
-2.8
-2.6
-2.3
-1.7
-1.4
-1.3
-1.2
-1.1
-1.1
-1.1
-1.1
-1.1
-1.1
-1.1
-1.1
-1.1
-1.1
-1.1
-1.1
-1.1
-1.0
-1.0
-1.0
-1.0
-4.7
-4.6
-4.4
-4.1
-4.0
-4.0
-4.0
-3.9
-3.9
-3.8
-3.5
-3.3
-3.1
-2.6
-2.1
-1.9
-1.4
-1.0
-0.9
-0.9
-0.9
-0.9
-0.9
-0.9
-0.8
-0.8
-0.8
-0.8
-0.7
-0.7
-0.7
-0.7
-0.7
-0.7
-0.7
-0.7
-0.7